111807
42,56,2,11,22,54,41,24,68,14,60,5,78,27,7,82,52,58,67,43,21,4,18,30,23,47,20,70,65,35,25,69,61,79,44,45,53,12,17,36,72,63,0,9,28,13,75,66,19,76,57,8,31,39,10,15,32,26,6,55,16,73,81,74,37,1,29,34,64,49,3,62,38,51,40,77,33,48,50,71,80,46,59
